NAME : si175.tour
COMMENT : Optimum tour for si175.tsp (Length 21407)
TYPE : TOUR
DIMENSION : 175
TOUR_SECTION
60
59
61
62
88
103
89
104
90
105
106
91
92
93
107
108
94
95
109
77
76
75
74
73
72
71
70
69
68
66
64
67
28
29
30
31
119
32
4
27
26
25
23
24
65
63
22
21
20
3
2
1
6
5
7
8
9
10
11
12
13
14
15
16
17
18
19
50
51
49
48
47
84
46
45
83
44
43
42
82
41
40
39
37
35
36
34
33
97
98
81
38
80
79
78
96
112
168
172
173
174
136
137
138
139
142
141
135
143
144
145
146
140
121
133
132
131
130
129
128
127
126
125
124
123
122
134
120
118
175
151
150
149
111
110
152
163
164
153
154
155
165
117
166
167
161
156
116
157
115
158
162
169
170
171
160
113
114
159
148
147
85
99
100
101
102
86
87
54
52
53
55
57
56
58
-1
EOF
